p edge 42 115
e 1 2
e 1 5
e 1 8
e 1 9
e 1 13
e 1 17
e 1 19
e 1 22
e 1 23
e 1 26
e 1 27
e 1 34
e 2 3
e 2 4
e 2 5
e 2 13
e 2 24
e 2 25
e 2 27
e 2 30
e 2 32
e 2 40
e 3 4
e 3 6
e 3 11
e 3 12
e 3 15
e 3 25
e 4 6
e 4 9
e 4 11
e 4 12
e 4 15
e 4 24
e 4 25
e 4 28
e 4 32
e 4 37
e 5 10
e 5 17
e 5 30
e 5 34
e 5 38
e 6 11
e 6 12
e 6 15
e 7 20
e 7 29
e 8 9
e 8 16
e 8 18
e 8 19
e 8 22
e 8 23
e 8 26
e 8 41
e 9 16
e 9 18
e 9 19
e 9 23
e 9 24
e 9 26
e 9 28
e 9 33
e 10 12
e 10 13
e 10 27
e 10 30
e 11 14
e 11 15
e 11 17
e 11 21
e 11 35
e 11 39
e 12 15
e 13 14
e 13 21
e 13 27
e 13 30
e 14 15
e 14 21
e 14 31
e 15 21
e 15 35
e 15 39
e 16 18
e 16 19
e 16 22
e 16 41
e 17 34
e 18 19
e 18 22
e 19 22
e 19 23
e 19 26
e 22 26
e 23 26
e 24 25
e 24 28
e 24 29
e 24 32
e 24 36
e 24 37
e 25 28
e 25 32
e 25 37
e 27 30
e 28 32
e 28 37
e 29 31
e 29 36
e 31 36
e 32 37
e 33 42
e 35 39
